10 50
0.38 0.48
1.06 2.44
1.22 2.52
1.48 3.12
1.96 1.96
1.4 1.84
0.3 1.76
1.18 1.44
1.28 1.48
0.58 2.64
1.96 1.72
1.58 0.64
1.48 0.56
1.7 2.92
1.04 2.88
1.4 2.88
1.68 3.32
1.82 0.6
1.68 3.32
1.5 2.6
1.56 0.84
1.44 1.96
0.1 1.44
0.92 0.8
0.52 0.88
1.9 3.2
0.76 3.76
1.58 0.12
0.56 2.92
1.84 0.04
0.24 3.64
0.74 2.48
0.74 0.32
1.16 2.32
1.88 3.16
0.88 2.68
0.5 2.12
0.06 0.32
0.24 3.4
1.34 3.28
0.04 2.8
1.96 1.72
0.24 0.88
0.04 2.12
0.68 0.88
1.36 0.56
1.36 1.64
1.62 1.64
1.84 3.08
0.32 3